4 
5  23 38 53 
6  08 23 38 53 
7  08 23 38 53 
8  08 23 38 53 
9  08 23 38 52 
10  07 22 37 52 
11  07 22 37 52 
12  07 22 37 52 
13  07 23 38 53 
14  08 23 38 53 
15  10 25 40 55 
16  10 25 40 55 
17  10 25 40 55 
18  10 25 40 55 
19  09 23 38 53 
20  08 23 38 53 
21  08 23 38 53 
22  08 25 40 55 
23  12 
0 
